41933
170,169,163,159,102,156,88,94,98,97,96,100,95,50,93,92,87,86,83,84,85,67,68,74,75,76,77,78,79,80,82,81,90,89,91,157,158,161,162,166,160,164,165,172,174,178,180,181,179,182,183,195,196,202,201,200,199,197,152,153,155,154,146,25,142,138,137,24,23,22,29,28,27,26,21,19,11,18,17,10,9,7,6,5,4,8,2,1,3,16,14,13,12,15,20,33,32,31,30,51,69,70,71,72,73,64,63,65,66,62,61,60,59,58,57,54,55,52,56,53,34,35,43,44,42,45,47,48,49,46,41,103,104,105,106,107,108,109,110,111,99,112,113,101,114,115,116,117,168,167,134,133,125,122,121,119,120,118,38,40,36,37,127,128,129,131,130,39,123,124,126,132,140,139,143,144,145,147,148,149,151,150,187,190,192,191,198,194,193,177,176,173,175,189,188,186,185,141,184,136,135,171,170
